p cnf 19 41
a 1 5 0
e 2 3 4 6 7 8 9 10 11 12 13 14 15 16 17 18 19 0
3 4 -5 0
-3 -4 -5 0
3 -4 5 0
-3 4 5 0
-3 -5 -6 0
3 5 -6 0
-3 5 6 0
3 -5 6 0
-7 2 0
-7 -6 0
-2 6 7 0
-8 -1 0
-8 -7 0
1 7 8 0
11 -9 0
11 -10 0
9 10 -11 0
12 7 0
12 11 0
-7 -11 -12 0
-13 -2 -14 0
13 2 -14 0
-13 2 14 0
13 -2 14 0
16 15 0
16 -3 0
-15 3 -16 0
-17 -14 0
-17 16 0
14 -16 17 0
-18 -12 0
-18 -17 0
12 17 18 0
19 -8 0
19 18 0
8 -18 -19 0
-18 -19 17 4 -6 0
17 -5 -2 -13 0
18 17 -9 -12 0
18 -3 -7 16 0
19 0
